263 5
10 10 10 10 10 

0 0 0 0 0 0 5 2 14 26 38 50 
0 0 0 0 0 0 1 3 
5 0 0 0 3 0 2 10 4 
2 0 0 0 10 0 2 6 5 
1 0 0 0 9 0 2 9 7 
1 0 0 0 10 0 2 9 8 
3 0 0 0 8 0 1 8 
7 0 0 0 5 0 1 11 
6 0 0 0 10 0 2 11 231 
7 0 0 0 7 0 1 11 
5 0 0 0 3 0 1 12 
10 0 0 0 10 0 1 13 
0 0 0 0 0 0 1 62 
0 0 0 0 0 0 3 15 18 21 
9 2 0 0 0 0 1 16 
3 5 0 0 0 0 1 17 
6 7 0 0 0 0 2 24 19 
10 10 0 0 0 0 3 24 22 222 
6 9 0 0 0 0 1 20 
7 8 0 0 0 0 1 22 
10 7 0 0 0 0 1 22 
7 9 0 0 0 0 1 23 
8 10 0 0 0 0 1 25 
1 8 0 0 0 0 1 25 
0 0 0 0 0 0 1 62 
0 0 0 0 0 0 2 27 34 
8 0 2 0 0 0 1 28 
9 0 6 0 0 0 1 29 
6 0 7 0 0 0 2 31 30 
6 0 10 0 0 0 1 32 
10 0 10 0 0 0 1 32 
1 0 9 0 0 0 1 33 
1 0 5 0 0 0 2 36 35 
4 0 10 0 0 0 2 35 218 
10 0 6 0 0 0 1 37 
1 0 10 0 0 0 1 37 
0 0 0 0 0 0 1 62 
0 0 0 0 0 0 2 39 45 
7 0 0 3 0 0 2 42 40 
7 0 0 4 0 0 1 41 
6 0 0 9 0 0 1 43 
5 0 0 8 0 0 1 43 
7 0 0 9 0 0 1 44 
9 0 0 7 0 0 2 48 46 
5 0 0 10 0 0 2 48 46 
10 0 0 10 0 0 2 47 115 
1 0 0 5 0 0 1 49 
7 0 0 10 0 0 1 49 
0 0 0 0 0 0 1 62 
0 0 0 0 0 0 1 51 
2 0 0 1 0 0 2 54 52 
7 0 0 9 0 0 1 53 
6 0 0 6 0 0 2 58 55 
6 0 0 7 0 0 2 58 56 
1 0 0 10 0 0 1 56 
1 0 0 7 0 0 2 60 57 
5 0 0 10 0 0 2 59 257 
6 0 0 7 0 0 1 59 
9 0 0 10 0 0 1 61 
5 0 0 8 0 0 1 61 
0 0 0 0 0 0 1 62 
0 0 0 0 0 0 5 63 75 87 99 111 
0 0 0 0 0 0 2 64 65 
6 0 0 7 0 0 2 68 66 
6 0 0 7 0 0 2 68 67 
4 0 0 5 0 0 1 67 
1 0 0 10 0 0 1 69 
5 0 0 6 0 0 2 69 112 
3 0 0 8 0 0 1 70 
10 0 0 9 0 0 1 71 
6 0 0 5 0 0 2 73 72 
6 0 0 10 0 0 1 74 
6 0 0 8 0 0 1 74 
0 0 0 0 0 0 1 123 
0 0 0 0 0 0 4 76 83 84 85 
5 0 0 1 0 0 1 77 
8 0 0 5 0 0 1 78 
10 0 0 10 0 0 1 79 
5 0 0 8 0 0 1 80 
4 0 0 7 0 0 2 81 119 
7 0 0 8 0 0 1 82 
4 0 0 10 0 0 1 86 
4 0 0 7 0 0 1 86 
10 0 0 10 0 0 1 86 
6 0 0 9 0 0 1 86 
0 0 0 0 0 0 1 123 
0 0 0 0 0 0 3 88 89 90 
1 0 0 0 0 5 1 91 
7 0 0 0 0 6 1 91 
10 0 0 0 0 4 1 91 
9 0 0 0 0 6 1 92 
6 0 0 0 0 9 1 93 
3 0 0 0 0 10 1 94 
4 0 0 0 0 7 2 97 95 
5 0 0 0 0 10 1 96 
4 0 0 0 0 10 2 98 259 
4 0 0 0 0 8 1 98 
0 0 0 0 0 0 1 123 
0 0 0 0 0 0 3 100 104 109 
8 0 0 3 0 0 1 101 
5 0 0 6 0 0 1 102 
2 0 0 10 0 0 2 106 103 
5 0 0 6 0 0 1 105 
6 0 0 9 0 0 1 105 
10 0 0 8 0 0 1 107 
8 0 0 3 0 0 1 107 
4 0 0 10 0 0 1 108 
4 0 0 10 0 0 2 110 260 
1 0 0 10 0 0 1 110 
0 0 0 0 0 0 1 123 
0 0 0 0 0 0 5 112 115 119 121 183 
2 0 0 0 0 10 1 113 
10 0 0 0 0 5 1 114 
10 0 0 0 0 5 1 116 
8 0 0 0 0 7 1 116 
3 0 0 0 0 10 1 117 
8 0 0 0 0 10 1 118 
7 0 0 0 0 6 1 120 
10 0 0 0 0 6 1 120 
5 0 0 0 0 10 1 122 
7 0 0 0 0 6 1 122 
0 0 0 0 0 0 1 123 
0 0 0 0 0 0 4 124 146 168 180 
0 0 0 0 0 0 2 125 220 
8 0 0 0 6 4 2 129 126 
7 0 0 0 6 10 1 127 
4 0 0 0 5 8 1 128 
9 0 0 0 7 6 2 135 130 
9 0 0 0 8 9 2 135 132 
9 0 0 0 9 9 1 131 
2 0 0 0 6 7 2 137 132 
6 0 0 0 9 10 1 133 
3 0 0 0 9 9 1 134 
3 0 0 0 7 6 2 141 136 
1 0 0 0 7 9 1 137 
3 0 0 0 6 10 2 142 138 
10 0 0 0 9 3 2 141 138 
2 0 0 0 10 2 1 139 
1 0 0 0 5 6 1 140 
6 0 0 0 5 9 1 143 
6 0 0 0 7 10 1 143 
5 0 0 0 10 10 1 143 
7 0 0 0 9 6 1 144 
2 0 0 0 10 7 1 145 
0 0 0 0 0 0 1 238 
0 0 0 0 0 0 1 147 
7 1 0 2 0 0 2 152 148 
5 7 0 10 0 0 2 156 149 
5 8 0 8 0 0 1 150 
6 5 0 7 0 0 2 158 151 
1 8 0 5 0 0 2 161 153 
2 5 0 8 0 0 3 161 158 155 
2 4 0 10 0 0 2 154 245 
9 10 0 5 0 0 1 155 
6 8 0 4 0 0 2 159 157 
3 10 0 6 0 0 2 160 158 
1 8 0 8 0 0 1 160 
1 8 0 9 0 0 1 159 
5 10 0 10 0 0 1 162 
8 6 0 7 0 0 1 162 
4 10 0 9 0 0 1 162 
3 7 0 9 0 0 1 163 
3 8 0 10 0 0 1 164 
9 10 0 7 0 0 1 165 
7 10 0 6 0 0 1 166 
5 7 0 10 0 0 1 167 
0 0 0 0 0 0 1 238 
0 0 0 0 0 0 2 169 178 
10 2 0 0 0 0 3 177 170 222 
9 10 0 0 0 0 1 171 
6 6 0 0 0 0 2 176 172 
7 4 0 0 0 0 1 173 
10 9 0 0 0 0 1 174 
7 10 0 0 0 0 1 175 
7 6 0 0 0 0 1 179 
10 8 0 0 0 0 1 179 
9 10 0 0 0 0 1 179 
3 10 0 0 0 0 1 179 
0 0 0 0 0 0 3 202 214 226 
0 0 0 0 0 0 4 181 194 199 200 
2 0 5 0 0 5 2 198 182 
4 0 6 0 0 6 1 183 
8 0 10 0 0 10 1 184 
6 0 8 0 0 6 1 185 
8 0 10 0 0 9 1 186 
7 0 6 0 0 9 2 197 187 
10 0 10 0 0 10 1 188 
6 0 5 0 0 10 1 189 
1 0 10 0 0 5 1 190 
6 0 10 0 0 10 1 191 
4 0 6 0 0 5 1 192 
7 0 10 0 0 10 1 193 
8 0 9 0 0 8 1 195 
7 0 7 0 0 7 1 195 
1 0 5 0 0 10 1 196 
7 0 5 0 0 9 1 201 
10 0 9 0 0 4 1 201 
10 0 4 0 0 2 1 201 
1 0 7 0 0 10 1 201 
5 0 8 0 0 5 1 201 
0 0 0 0 0 0 1 238 
0 0 0 0 0 0 3 203 209 212 
3 0 0 0 0 3 2 211 204 
5 0 0 0 0 4 1 205 
9 0 0 0 0 9 1 206 
2 0 0 0 0 6 1 207 
5 0 0 0 0 9 1 208 
8 0 0 0 0 9 1 210 
2 0 0 0 0 10 1 210 
8 0 0 0 0 8 1 213 
7 0 0 0 0 9 1 213 
4 0 0 0 0 8 1 213 
0 0 0 0 0 0 1 238 
0 0 0 0 0 0 1 215 
7 0 0 0 0 4 3 220 218 216 
10 0 0 0 0 7 1 217 
10 0 0 0 0 5 1 219 
7 0 0 0 0 7 1 219 
7 0 0 0 0 9 1 221 
5 0 0 0 0 10 1 221 
7 0 0 0 0 10 1 222 
9 0 0 0 0 6 2 224 223 
2 0 0 0 0 10 1 225 
5 0 0 0 0 7 1 225 
0 0 0 0 0 0 1 238 
0 0 0 0 0 0 1 227 
5 0 0 0 5 0 2 236 228 
9 0 0 0 9 0 3 235 234 229 
4 0 0 0 5 0 1 230 
9 0 0 0 5 0 1 231 
9 0 0 0 5 0 1 232 
4 0 0 0 10 0 1 233 
8 0 0 0 8 0 1 237 
1 0 0 0 8 0 1 237 
10 0 0 0 10 0 1 237 
5 0 0 0 10 0 1 237 
0 0 0 0 0 0 1 238 
0 0 0 0 0 0 2 239 251 
0 0 0 0 0 0 2 240 242 
10 0 0 3 0 0 1 241 
10 0 0 7 0 0 1 243 
4 0 0 5 0 0 1 243 
9 0 0 7 0 0 1 244 
4 0 0 7 0 0 2 246 245 
8 0 0 7 0 0 2 248 247 
6 0 0 10 0 0 1 247 
5 0 0 9 0 0 1 249 
4 0 0 10 0 0 1 249 
7 0 0 10 0 0 1 250 
0 0 0 0 0 0 1 263 
0 0 0 0 0 0 2 252 254 
8 0 0 4 0 0 2 258 253 
6 0 0 2 0 0 1 255 
5 0 0 10 0 0 2 258 257 
1 0 0 9 0 0 1 256 
5 0 0 7 0 0 1 257 
5 0 0 10 0 0 2 261 259 
10 0 0 10 0 0 2 261 259 
6 0 0 10 0 0 1 260 
8 0 0 10 0 0 1 262 
3 0 0 3 0 0 1 262 
0 0 0 0 0 0 1 263 
0 0 0 0 0 0 0 
